p cnf 20 11
a 1 0
e 2 0
a 3 0
e 4 0
a 5 6 0
e 7 0
a 8 0
e 9 10 0
a 11 0
e 12 0
a 13 14 0
e 15 16 17 0
a 18 0
e 19 0
a 20 0
20 17 5 16 0
-18 1 -4 15 3 0
4 3 -18 0
8 -6 4 16 0
-13 8 11 9 19 0
9 -18 -14 16 1 0
7 -9 13 12 5 0
-10 12 -1 3 -16 0
12 13 7 17 0
14 12 10 -15 0
-2 12 -1 4 -20 0
